
Gurobi 6.5.2 (win64) logging started 07/23/16 03:32:17


Gurobi 6.5.2 (win64) logging started 07/23/16 03:32:17

Optimize a model with 22737 rows, 1421 columns and 49481 nonzeros
Coefficient statistics:
  Matrix range    [4e-06, 1e+03]
  Objective range [1e+00, 1e+00]
  Bounds range    [1e+00, 1e+00]
  RHS range       [1e+00, 1e+03]
Found heuristic solution: objective 3.8154e+06
Presolve removed 22711 rows and 1395 columns
Presolve time: 0.01s
Presolved: 26 rows, 26 columns, 78 nonzeros
Variable types: 26 continuous, 0 integer (0 binary)

Root relaxation: objective 2.295820e+02, 19 iterations, 0.00 seconds

    Nodes    |    Current Node    |     Objective Bounds      |     Work
 Expl Unexpl |  Obj  Depth IntInf | Incumbent    BestBd   Gap | It/Node Time

*    0     0               0     229.5820293  229.58203  0.00%     -    0s

Explored 0 nodes (19 simplex iterations) in 0.02 seconds
Thread count was 8 (of 8 available processors)

Optimal solution found (tolerance 1.00e-04)
Best objective 2.295820292584e+02, best bound 2.295820292584e+02, gap 0.0%

Wrote requested result file 'H2\instance26\\Results26EC_Sol4.lp'

